000 000 000 000 -99 -99 -99 -99 -99 -99 -99 -99 -99 000 000 000 -99 000 000 000 000 000 000 000 000 000 000 000 000 -99 -99
000 -99 -99 000 000 000 000 000 -99 -99 -99 -99 -99 000 000 000 -99 000 000 000 000 000 000 000 000 000 000 000 000 -99 -99
000 -99 -99 000 000 000 000 000 000 -99 -99 000 000 -99 000 000 -99 -99 000 000 000 000 000 000 000 000 001 001 001 000 -99
000 000 -99 000 000 000 000 000 000 -99 -99 000 000 -99 -99 000 -99 -99 000 000 000 000 000 000 000 001 001 000 000 -99 -99
000 000 -99 000 000 000 000 000 000 -99 -99 000 000 000 -99 -99 -99 000 000 000 000 000 000 000 000 000 001 001 000 -99 -99
000 000 -99 000 000 000 000 000 -99 000 -99 000 000 000 -99 -99 -99 000 000 000 000 000 000 000 000 000 -99 001 000 -99 -99
000 000 000 000 000 000 000 000 000 000 -99 -99 000 000 -99 000 000 000 000 000 000 000 000 000 000 000 -99 -99 009 007 001
000 000 -99 000 000 000 000 000 000 000 000 -99 000 -99 000 000 000 000 000 000 000 000 000 000 000 000 001 003 009 010 003
000 000 000 000 000 000 -99 000 000 000 000 000 -99 -99 -99 000 000 000 000 000 000 000 000 000 000 000 000 005 007 013 005
000 000 000 000 000 000 000 000 000 000 000 000 -99 -99 000 000 000 000 000 000 000 000 -99 000 000 000 001 005 021 029 028
000 000 000 000 000 000 000 000 000 000 000 000 -99 -99 -99 000 000 000 000 000 000 000 001 000 001 000 001 009 031 039 032
000 000 000 000 000 000 000 000 000 000 000 000 000 -99 -99 000 000 000 000 000 000 000 001 000 000 000 002 010 045 055 044
000 000 000 000 000 000 000 000 000 000 000 000 000 000 -99 000 000 000 000 000 000 000 -99 001 000 000 002 009 034 046 040
000 000 000 000 000 000 000 000 000 000 000 000 000 -99 -99 -99 000 -99 000 000 000 000 001 000 000 000 001 007 017 025 031
000 000 000 000 000 000 000 000 000 000 000 -99 -99 000 -99 000 000 000 000 000 000 -99 -99 000 000 000 001 005 007 012 018
000 000 000 000 000 000 000 000 000 000 000 000 -99 000 -99 -99 000 000 000 -99 -99 -99 -99 000 000 000 000 002 001 001 002
000 000 000 000 -99 000 000 000 000 000 000 000 -99 000 000 -99 -99 000 000 -99 -99 -99 000 000 000 000 000 000 001 001 001
000 000 000 000 -99 000 000 000 000 000 000 000 000 000 000 -99 000 -99 000 -99 -99 000 000 -99 000 000 000 000 000 000 000
000 000 000 000 -99 -99 000 000 000 000 000 000 000 000 000 -99 000 000 -99 -99 -99 000 000 -99 000 000 000 -99 -99 000 000
000 000 000 000 000 000 000 000 000 000 000 000 000 000 000 -99 000 000 000 -99 000 000 000 -99 -99 -99 -99 -99 -99 -99 000
000 000 000 000 000 000 -99 000 000 000 000 000 000 000 000 000 000 000 000 000 000 000 000 -99 -99 -99 -99 -99 -99 -99 -99
000 000 000 000 000 000 000 000 000 000 -99 -99 000 000 000 000 000 000 000 000 000 000 000 -99 -99 -99 -99 -99 -99 -99 -99
000 000 000 000 000 000 000 000 000 000 -99 -99 000 000 000 000 000 000 000 000 000 000 000 -99 -99 -99 -99 -99 -99 -99 003
000 000 000 000 000 000 000 000 000 000 000 000 000 000 000 000 000 000 000 000 000 000 000 -99 -99 -99 -99 -99 -99 -99 003
000 000 000 000 000 000 000 000 000 000 000 000 000 000 000 000 000 000 000 000 000 000 000 -99 -99 -99 -99 -99 -99 -99 004
000 000 000 000 000 000 000 000 000 000 000 000 000 000 000 000 000 000 000 000 000 000 000 -99 -99 -99 -99 -99 -99 003 002
000 000 000 000 000 000 000 000 000 000 000 000 000 000 000 000 000 000 000 000 000 000 000 -99 003 -99 -99 -99 -99 006 008
000 000 000 000 000 000 000 000 000 000 000 000 000 000 000 000 000 000 000 000 000 000 000 002 002 -99 -99 009 010 010 011
000 000 000 000 000 000 000 000 000 000 000 000 000 000 000 000 000 000 000 000 000 000 -99 001 002 003 003 009 011 019 017
000 000 000 000 000 000 000 000 000 000 000 000 000 000 000 000 000 000 000 000 000 000 -99 000 002 003 003 008 011 020 018
000 000 000 000 000 000 000 000 000 000 000 000 000 001 000 000 000 000 000 000 -99 000 -99 000 001 002 002 007 010 008 008
000 000 000 000 000 000 000 000 000 000 000 000 000 001 000 000 000 000 000 000 -99 000 000 000 000 002 002 003 004 005 004
000 000 000 000 000 000 000 000 000 000 000 000 000 001 001 000 000 000 000 000 -99 -99 000 000 000 001 003 002 003 002 005
000 000 000 000 000 000 000 000 000 000 000 000 000 001 001 000 000 000 000 000 000 000 000 000 000 000 001 000 001 001 002
000 000 000 000 000 000 000 000 000 000 000 000 000 001 002 001 000 000 000 000 000 000 000 000 000 000 000 000 000 001 001
000 000 000 -99 000 000 000 000 000 000 000 000 000 001 001 000 000 000 000 000 000 000 000 000 000 000 000 000 000 000 000
000 000 -99 000 -99 000 000 000 000 000 000 000 000 000 000 000 000 000 000 001 000 000 000 000 000 000 000 000 000 000 000
000 -99 -99 -99 -99 -99 -99 000 000 000 000 000 000 000 000 000 000 000 000 001 001 000 000 000 000 000 000 000 000 000 000
000 -99 -99 -99 -99 -99 -99 -99 000 000 000 000 000 000 000 000 000 000 001 001 001 001 000 000 000 000 000 000 000 000 000
000 -99 -99 000 -99 -99 -99 -99 -99 000 000 000 000 000 000 000 000 001 001 001 002 002 001 000 000 000 000 000 000 000 000
000 000 000 -99 -99 -99 -99 -99 -99 000 000 000 000 000 000 000 000 000 001 001 002 002 002 002 000 000 000 000 000 000 000
000 000 -99 -99 -99 -99 -99 -99 -99 000 000 000 000 000 000 000 000 000 001 001 003 002 003 004 001 002 001 001 001 000 000
-99 -99 -99 -99 -99 -99 000 -99 000 000 000 000 000 000 000 000 000 000 001 001 002 003 007 005 005 007 002 003 001 000 000
-99 -99 -99 -99 -99 000 -99 -99 000 000 000 000 000 000 000 000 000 001 001 001 002 004 006 006 008 018 017 009 002 000 000
000 -99 -99 -99 000 -99 -99 000 000 000 000 000 000 000 000 000 000 001 001 001 002 006 010 012 017 014 021 018 006 002 002
000 -99 -99 000 000 -99 -99 000 000 000 000 000 000 000 000 000 000 002 002 002 003 006 012 011 015 014 019 024 010 012 015
000 -99 -99 -99 -99 -99 -99 000 000 000 000 000 000 001 001 000 001 002 003 003 006 005 011 007 007 009 016 025 015 015 029
000 000 000 -99 -99 -99 000 000 000 000 000 000 001 002 001 000 001 003 004 004 006 007 011 015 007 008 017 026 013 020 017
000 000 000 -99 -99 -99 000 000 000 000 000 000 001 001 002 001 001 002 004 004 009 014 009 011 013 013 034 029 009 007 003
000 000 000 -99 -99 000 000 000 000 000 000 000 000 001 003 003 002 002 004 003 007 008 010 019 035 071 046 007 001 003 001
000 000 000 -99 -99 -99 000 000 000 000 000 000 000 001 003 003 004 003 003 004 007 006 010 024 064 089 016 001 000 000 000
000 000 -99 -99 -99 000 000 000 000 000 000 000 001 003 003 004 003 003 005 003 004 006 017 027 048 037 009 001 000 000 -99
000 000 -99 -99 -99 000 000 000 000 000 000 000 001 002 004 004 003 003 007 003 002 009 025 031 042 024 004 000 000 -99 -99
-99 -99 -99 -99 -99 000 000 000 001 000 000 000 001 001 005 006 004 004 010 004 005 021 012 021 046 028 001 000 -99 -99 -99
-99 -99 -99 -99 -99 000 000 001 001 000 000 000 000 001 002 006 010 008 004 008 010 016 011 014 047 005 001 -99 -99 -99 -99
